c nIsolatedPIs 30
c maxPI 30
p cnf 87 172
c gate 31 27 28 0
27 -31 0
28 -31 0
-27 -28 31 0
c gate 32 29 -30 0
29 -32 0
-30 -32 0
-29 30 32 0
c gate 33 31 32 0
31 -33 0
32 -33 0
-31 -32 33 0
c gate 34 1 12 0
1 -34 0
12 -34 0
-1 -12 34 0
c gate 35 23 24 0
23 -35 0
24 -35 0
-23 -24 35 0
c gate 36 25 26 0
25 -36 0
26 -36 0
-25 -26 36 0
c gate 37 35 36 0
35 -37 0
36 -37 0
-35 -36 37 0
c gate 38 34 37 0
34 -38 0
37 -38 0
-34 -37 38 0
c gate 39 33 38 0
33 -39 0
38 -39 0
-33 -38 39 0
c gate 40 -28 -29 0
-28 -40 0
-29 -40 0
28 29 40 0
c gate 41 30 40 0
30 -41 0
40 -41 0
-30 -40 41 0
c gate 42 -12 -23 0
-12 -42 0
-23 -42 0
12 23 42 0
c gate 43 -24 -25 0
-24 -43 0
-25 -43 0
24 25 43 0
c gate 44 -26 -27 0
-26 -44 0
-27 -44 0
26 27 44 0
c gate 45 43 44 0
43 -45 0
44 -45 0
-43 -44 45 0
c gate 46 42 45 0
42 -46 0
45 -46 0
-42 -45 46 0
c gate 47 41 46 0
41 -47 0
46 -47 0
-41 -46 47 0
c gate 48 -39 -47 0
-39 -48 0
-47 -48 0
39 47 48 0
c gate 49 16 17 0
16 -49 0
17 -49 0
-16 -17 49 0
c gate 50 18 -19 0
18 -50 0
-19 -50 0
-18 19 50 0
c gate 51 49 50 0
49 -51 0
50 -51 0
-49 -50 51 0
c gate 52 -14 -15 0
-14 -52 0
-15 -52 0
14 15 52 0
c gate 53 11 13 0
11 -53 0
13 -53 0
-11 -13 53 0
c gate 54 6 7 0
6 -54 0
7 -54 0
-6 -7 54 0
c gate 55 -8 -54 0
-8 -55 0
-54 -55 0
8 54 55 0
c gate 56 9 -55 0
9 -56 0
-55 -56 0
-9 55 56 0
c gate 57 -10 -56 0
-10 -57 0
-56 -57 0
10 56 57 0
c gate 58 53 -57 0
53 -58 0
-57 -58 0
-53 57 58 0
c gate 59 52 -58 0
52 -59 0
-58 -59 0
-52 58 59 0
c gate 60 51 -59 0
51 -60 0
-59 -60 0
-51 59 60 0
c gate 61 -19 -60 0
-19 -61 0
-60 -61 0
19 60 61 0
c gate 62 -8 -10 0
-8 -62 0
-10 -62 0
8 10 62 0
c gate 63 -19 62 0
-19 -63 0
62 -63 0
19 -62 63 0
c gate 64 -4 -5 0
-4 -64 0
-5 -64 0
4 5 64 0
c gate 65 52 64 0
52 -65 0
64 -65 0
-52 -64 65 0
c gate 66 63 65 0
63 -66 0
65 -66 0
-63 -65 66 0
c gate 67 -3 66 0
-3 -67 0
66 -67 0
3 -66 67 0
c gate 68 20 21 0
20 -68 0
21 -68 0
-20 -21 68 0
c gate 69 22 68 0
22 -69 0
68 -69 0
-22 -68 69 0
c gate 70 -67 69 0
-67 -70 0
69 -70 0
67 -69 70 0
c gate 71 -2 66 0
-2 -71 0
66 -71 0
2 -66 71 0
c gate 72 70 71 0
70 -72 0
71 -72 0
-70 -71 72 0
c gate 73 -61 72 0
-61 -73 0
72 -73 0
61 -72 73 0
c gate 74 -48 73 0
-48 -74 0
73 -74 0
48 -73 74 0
c gate 75 8 9 0
8 -75 0
9 -75 0
-8 -9 75 0
c gate 76 -10 -75 0
-10 -76 0
-75 -76 0
10 75 76 0
c gate 77 53 -76 0
53 -77 0
-76 -77 0
-53 76 77 0
c gate 78 52 -77 0
52 -78 0
-77 -78 0
-52 77 78 0
c gate 79 51 -78 0
51 -79 0
-78 -79 0
-51 78 79 0
c gate 80 -19 -79 0
-19 -80 0
-79 -80 0
19 79 80 0
c gate 81 -30 73 0
-30 -81 0
73 -81 0
30 -73 81 0
c gate 82 -61 -81 0
-61 -82 0
-81 -82 0
61 81 82 0
c gate 83 -80 82 0
-80 -83 0
82 -83 0
80 -82 83 0
c gate 84 80 -82 0
80 -84 0
-82 -84 0
-80 82 84 0
c gate 85 70 -84 0
70 -85 0
-84 -85 0
-70 84 85 0
c gate 86 -83 85 0
-83 -86 0
85 -86 0
83 -85 86 0
c gate 87 -74 -86 0
-74 -87 0
-86 -87 0
74 86 87 0
c PO
-87 0
